Read MPS format model from file dat/rmp/DER_48_32768_30.mps
Reading time = 2.34 seconds
: 32816 rows, 155792 columns, 6765177 nonzeros
Gurobi Optimizer version 9.0.0 build v9.0.0rc2 (linux64)
Optimize a model with 32816 rows, 155792 columns and 6765177 nonzeros
Model fingerprint: 0x888714a2
Coefficient statistics:
  Matrix range     [6e-05, 1e+01]
  Objective range  [3e-01, 1e+03]
  Bounds range     [2e+05, 2e+05]
  RHS range        [1e+00, 1e+00]
Ordering time: 0.04s

Barrier statistics:
 AA' NZ     : 1.495e+06
 Factor NZ  : 1.877e+06 (roughly 100 MBytes of memory)
 Factor Ops : 1.108e+08 (less than 1 second per iteration)
 Threads    : 1

                  Objective                Residual
Iter       Primal          Dual         Primal    Dual     Compl     Time
   0   3.74874024e+09 -2.52193189e+08  2.37e+08 7.52e-03  7.60e+05     2s
   1   6.13452308e+07 -3.65407650e+07  3.47e+06 2.73e-12  1.14e+04     2s
   2   3.14889224e+06 -1.61296944e+07  1.71e+05 3.64e-12  6.54e+02     2s
   3   1.23893891e+05 -1.04006406e+07  1.23e+03 3.64e-12  7.08e+01     3s
   4   9.87074094e+04  1.15095086e+03  1.03e-09 3.64e-12  6.26e-01     3s
   5   9.83122213e+04  5.36766936e+04  1.37e-09 1.82e-12  2.86e-01     4s
   6   9.76544214e+04  8.90469836e+04  1.13e-09 1.82e-12  5.52e-02     4s
   7   9.71768083e+04  9.24134818e+04  6.80e-10 3.64e-12  3.06e-02     5s
   8   9.68690522e+04  9.54756506e+04  2.33e-09 1.82e-12  8.94e-03     5s
   9   9.63559905e+04  9.57169086e+04  2.19e-09 1.82e-12  4.10e-03     6s
  10   9.61618536e+04  9.58167554e+04  2.51e-09 1.82e-12  2.21e-03     6s
  11   9.60753991e+04  9.58832367e+04  2.21e-09 1.82e-12  1.23e-03     7s
  12   9.60082739e+04  9.59014982e+04  4.89e-09 1.82e-12  6.85e-04     7s
  13   9.59852665e+04  9.59253433e+04  7.74e-09 3.64e-12  3.85e-04     8s
  14   9.59835386e+04  9.59386358e+04  6.59e-09 1.82e-12  2.88e-04     8s
  15   9.59666951e+04  9.59441762e+04  8.26e-09 1.82e-12  1.44e-04     9s
  16   9.59591116e+04  9.59474161e+04  1.03e-08 1.82e-12  7.50e-05     9s
  17   9.59556319e+04  9.59504631e+04  1.53e-08 1.82e-12  3.32e-05    10s
  18   9.59541903e+04  9.59515362e+04  1.72e-08 1.82e-12  1.70e-05    11s
  19   9.59532743e+04  9.59523844e+04  1.66e-08 1.82e-12  5.71e-06    11s
  20   9.59530502e+04  9.59525811e+04  1.60e-08 1.82e-12  3.01e-06    12s
  21   9.59529084e+04  9.59526949e+04  2.58e-08 1.82e-12  1.37e-06    12s
  22   9.59528527e+04  9.59527390e+04  3.02e-08 3.64e-12  7.30e-07    13s
  23   9.59528040e+04  9.59527897e+04  1.40e-07 3.64e-12  9.12e-08    13s
  24   9.59527986e+04  9.59527923e+04  3.08e-07 3.64e-12  4.01e-08    14s
  25   9.59527947e+04  9.59527938e+04  3.34e-06 1.82e-12  5.77e-09    14s
  26   9.59527942e+04  9.59527941e+04  1.10e-06 3.64e-12  3.87e-10    15s

Barrier solved model in 26 iterations and 14.88 seconds
Optimal objective 9.59527942e+04

Solve time: 14.88857026
Barrier iterations: 26
